22
phenalenyl cation optimised at the wB2PLYP/def2-TZVP level
  C           0.00000000000000      0.00000000000000      0.00000000000000
  C          -1.40508854188389      0.00000000000000      0.00000000000000
  C           0.70254427094195      1.21684237183788      0.00000000000000
  C           0.70254427094195     -1.21684237183788      0.00000000000000
  C          -2.08642222791270      1.22600552348294      0.00000000000000
  C           2.10496304247261      1.19389189065145      0.00000000000000
  C          -0.01854081455991     -2.41989741413439      0.00000000000000
  C          -1.39886004923556      2.42289667795429      0.00000000000000
  C           2.79772009847112      0.00000000000000      0.00000000000000
  C          -1.39886004923556     -2.42289667795429      0.00000000000000
  C          -0.01854081455991      2.41989741413439      0.00000000000000
  C           2.10496304247261     -1.19389189065145      0.00000000000000
  C          -2.08642222791270     -1.22600552348294      0.00000000000000
  H          -3.16881447293736      1.22501285881288      0.00000000000000
  H           2.64529949216323      2.13176740403711      0.00000000000000
  H           0.52351498077413     -3.35678026284999      0.00000000000000
  H          -1.93857557980340      3.35771139853179      0.00000000000000
  H           3.87715115960680      0.00000000000000      0.00000000000000
  H          -1.93857557980340     -3.35771139853179      0.00000000000000
  H           0.52351498077413      3.35678026284999      0.00000000000000
  H           2.64529949216323     -2.13176740403711      0.00000000000000
  H          -3.16881447293736     -1.22501285881288      0.00000000000000
