9

  C          -0.24101886748503      1.26062262723229      0.00000000000000
  C           0.57184101254940     -0.01319415762554      0.00000000000000
  O          -0.32834232653873     -1.10836075187846      0.00000000000000
  H          -0.87823136510760      1.30467239836313      0.88429849394694
  H          -0.87823136510760      1.30467239836313     -0.88429849394694
  H           0.41374414256528      2.13390242556037      0.00000000000000
  H           1.21888576495627     -0.04584670836598      0.88614345321378
  H           1.21888576495627     -0.04584670836598     -0.88614345321378
  H           0.17443525012327     -1.92357729676809      0.00000000000000
