   30
 
 C     2.103026    -3.109072    -1.323374
 C     0.835350    -2.955840    -0.663995
 C    -0.333520    -3.537526    -1.279603
 C    -0.174029    -4.261788    -2.509717
 C     1.049708    -4.392353    -3.093802
 C     2.207161    -3.800270    -2.493460
 C    -1.573581    -3.374583    -0.676342
 C    -1.721769    -2.667434     0.533868
 C    -0.551875    -2.104905     1.160802
 C     0.700959    -2.262417     0.532156
 C    -2.979755    -2.480862     1.143820
 C    -3.116313    -1.777685     2.333401
 C    -1.943050    -1.226013     2.968307
 C    -0.700861    -1.398206     2.371209
 C    -4.394240    -1.564643     2.955830
 C    -4.498650    -0.871230     4.124212
 C    -3.332782    -0.333212     4.757655
 C    -2.102735    -0.501745     4.198396
 H    -2.460352    -3.799981    -1.153461
 H     0.184556    -0.968189     2.846841
 H    -1.061602    -4.701137    -2.971260
 H    -1.214946    -0.076819     4.672354
 H     1.155815    -4.945691    -4.029477
 H    -3.439149     0.228678     5.687423
 H     3.178582    -3.910758    -2.980441
 H    -5.476590    -0.718443     4.586084
 H     2.987226    -2.662064    -0.861649
 H    -5.283438    -1.976957     2.471985
 H     1.586296    -1.823946     1.001056
 H    -3.867654    -2.897975     0.660902
